<number of tasks>
100

<cycle time>
1000

<order strength>
0.197


<task times>
1 157
2 55
3 94
4 151
5 32
6 138
7 88
8 35
9 35
10 86
11 151
12 116
13 109
14 85
15 114
16 90
17 195
18 84
19 176
20 124
21 231
22 200
23 316
24 154
25 66
26 221
27 215
28 138
29 123
30 248
31 150
32 260
33 221
34 244
35 21
36 89
37 167
38 134
39 35
40 55
41 185
42 59
43 168
44 87
45 56
46 95
47 330
48 68
49 53
50 136
51 134
52 25
53 93
54 158
55 114
56 46
57 72
58 95
59 134
60 78
61 199
62 96
63 81
64 127
65 164
66 305
67 255
68 116
69 75
70 117
71 159
72 226
73 111
74 340
75 148
76 51
77 185
78 314
79 126
80 191
81 191
82 189
83 99
84 109
85 140
86 155
87 242
88 87
89 119
90 47
91 51
92 201
93 190
94 124
95 41
96 63
97 245
98 172
99 221
100 220

<precedence relations>
1,16
2,16
3,16
4,11
5,12
6,13
6,14
7,8
7,9
7,10
7,15
8,16
9,16
10,16
11,18
12,17
12,20
13,21
13,23
15,19
15,22
16,24
16,25
16,26
16,27
16,28
16,29
16,30
16,31
16,32
16,33
17,35
18,34
19,36
19,37
21,39
23,38
24,46
26,45
27,41
33,44
34,42
35,40
36,43
40,78
41,78
42,47
43,48
44,49
44,51
44,54
45,52
45,53
46,50
46,55
46,56
47,57
48,58
49,59
50,61
52,62
55,63
56,60
56,64
57,66
58,65
59,65
60,67
61,68
63,69
63,70
65,78
66,73
67,74
68,72
68,75
68,76
68,77
70,71
71,78
72,78
73,80
74,79
76,81
76,83
77,82
78,84
78,85
78,86
78,87
78,88
79,90
80,89
80,91
81,93
82,94
83,92
87,99
89,95
90,97
91,96
92,98
92,100

<end>
